(set-info :source  loris-7.ddns.comp.nus.edu.sg/~project/hip/) 
;Variables declarations
(declare-fun bhr_5969 () Int)
(declare-fun nr_5968 () Int)
(declare-fun nc () Int)
(declare-fun bhl_5966 () Int)
(declare-fun nl_5965 () Int)
(declare-fun nb () Int)
(declare-fun r_5967 () Int)
(declare-fun l_5964 () Int)
(declare-fun v_5963 () Int)
(declare-fun v_int_188_5929 () Int)
(declare-fun v_int_187_5927 () Int)
(declare-fun v_int_187_5926 () Int)
(declare-fun flted_182_5923 () Int)
(declare-fun flted_182_5924 () Int)
(declare-fun flted_182_5925 () Int)
(declare-fun c_primed () Int)
(declare-fun c () Int)
(declare-fun b_primed () Int)
(declare-fun b () Int)
(declare-fun a () Int)
(declare-fun v_5934 () Int)
(declare-fun v_int_188_5928 () Int)
(declare-fun l_5935 () Int)
(declare-fun a_primed () Int)
(declare-fun r_5938 () Int)
(declare-fun tmp1_5930 () Int)
(declare-fun nl_5936 () Int)
(declare-fun na () Int)
(declare-fun bhl_5937 () Int)
(declare-fun ha () Int)
;Relations declarations
;Axioms assertions
;Antecedent
(assert (= bhr_5969 ha))
(assert (= nr_5968 nc))
(assert (= bhl_5966 ha))
(assert (= nl_5965 nb))
(assert (= r_5967 c_primed))
(assert (= l_5964 b_primed))
(assert (= v_5963 v_int_187_5926))
(assert (= v_int_188_5929 0))
(assert (= v_int_188_5928 0))
(assert (= v_int_187_5927 1))
(assert (= v_int_187_5926 0))
(assert (= flted_182_5923 0))
(assert (= flted_182_5924 0))
(assert (= flted_182_5925 0))
(assert (= c_primed c))
(assert (= b_primed b))
(assert (= a_primed a))
(assert (= v_5934 v_int_188_5928))
(assert (= l_5935 a_primed))
(assert (= r_5938 tmp1_5930))
(assert (= nl_5936 na))
(assert (= bhl_5937 ha))
;Negation of Consequence
(assert (not false))
(check-sat)